c "648531.clq"
p edge 100 1344
e 1 17
e 1 19
e 1 20
e 1 23
e 1 24
e 1 26
e 1 27
e 1 34
e 1 36
e 1 38
e 1 42
e 1 47
e 1 64
e 1 66
e 1 78
e 1 91
e 1 93
e 2 17
e 2 18
e 2 20
e 2 21
e 2 25
e 2 28
e 2 31
e 2 34
e 2 35
e 2 40
e 2 42
e 2 46
e 2 65
e 2 71
e 2 72
e 2 76
e 2 78
e 2 80
e 2 83
e 2 84
e 2 93
e 2 95
e 3 17
e 3 18
e 3 19
e 3 20
e 3 21
e 3 22
e 3 24
e 3 25
e 3 26
e 3 29
e 3 33
e 3 36
e 3 40
e 3 47
e 3 49
e 3 54
e 3 61
e 3 65
e 3 70
e 3 72
e 3 87
e 3 90
e 3 94
e 4 17
e 4 18
e 4 19
e 4 21
e 4 22
e 4 23
e 4 24
e 4 26
e 4 27
e 4 29
e 4 30
e 4 32
e 4 33
e 4 34
e 4 35
e 4 36
e 4 37
e 4 40
e 4 41
e 4 42
e 4 52
e 4 53
e 4 61
e 4 65
e 4 72
e 4 75
e 4 76
e 4 79
e 4 83
e 4 84
e 4 94
e 4 99
e 5 17
e 5 18
e 5 19
e 5 20
e 5 21
e 5 26
e 5 30
e 5 33
e 5 35
e 5 37
e 5 57
e 5 63
e 5 64
e 5 67
e 5 68
e 5 75
e 5 78
e 5 85
e 5 91
e 5 99
e 6 17
e 6 18
e 6 19
e 6 20
e 6 22
e 6 23
e 6 27
e 6 28
e 6 29
e 6 30
e 6 38
e 6 39
e 6 42
e 6 43
e 6 46
e 6 48
e 6 52
e 6 69
e 6 74
e 6 95
e 7 17
e 7 18
e 7 19
e 7 20
e 7 21
e 7 22
e 7 24
e 7 25
e 7 26
e 7 27
e 7 30
e 7 31
e 7 32
e 7 37
e 7 38
e 7 50
e 7 57
e 7 58
e 7 64
e 7 67
e 7 69
e 7 73
e 7 80
e 7 90
e 7 100
e 8 17
e 8 18
e 8 19
e 8 20
e 8 21
e 8 22
e 8 23
e 8 24
e 8 26
e 8 27
e 8 28
e 8 29
e 8 30
e 8 31
e 8 34
e 8 37
e 8 38
e 8 39
e 8 40
e 8 41
e 8 59
e 8 62
e 8 69
e 8 72
e 8 74
e 8 81
e 8 91
e 8 95
e 8 98
e 9 17
e 9 18
e 9 20
e 9 21
e 9 22
e 9 24
e 9 25
e 9 29
e 9 33
e 9 44
e 9 48
e 9 56
e 9 60
e 9 64
e 9 70
e 9 75
e 9 87
e 9 89
e 9 94
e 9 95
e 9 97
e 10 17
e 10 18
e 10 19
e 10 20
e 10 21
e 10 22
e 10 23
e 10 25
e 10 28
e 10 29
e 10 30
e 10 31
e 10 32
e 10 33
e 10 36
e 10 49
e 10 50
e 10 55
e 10 56
e 10 60
e 10 61
e 10 75
e 10 76
e 10 81
e 10 85
e 10 100
e 11 17
e 11 18
e 11 19
e 11 22
e 11 24
e 11 35
e 11 36
e 11 39
e 11 42
e 11 46
e 11 47
e 11 54
e 11 57
e 11 59
e 11 63
e 11 85
e 11 88
e 11 91
e 12 17
e 12 18
e 12 19
e 12 20
e 12 21
e 12 22
e 12 23
e 12 25
e 12 26
e 12 27
e 12 28
e 12 29
e 12 31
e 12 32
e 12 33
e 12 34
e 12 35
e 12 38
e 12 44
e 12 46
e 12 48
e 12 54
e 12 57
e 12 63
e 12 73
e 12 81
e 12 87
e 13 17
e 13 18
e 13 19
e 13 21
e 13 23
e 13 25
e 13 28
e 13 32
e 13 33
e 13 56
e 13 61
e 13 68
e 13 71
e 13 77
e 13 90
e 14 17
e 14 18
e 14 19
e 14 20
e 14 21
e 14 23
e 14 24
e 14 25
e 14 27
e 14 28
e 14 33
e 14 38
e 14 39
e 14 41
e 14 43
e 14 53
e 14 55
e 14 57
e 14 60
e 14 61
e 14 72
e 14 76
e 14 79
e 14 82
e 14 85
e 14 86
e 14 92
e 14 93
e 15 17
e 15 18
e 15 19
e 15 20
e 15 22
e 15 23
e 15 27
e 15 28
e 15 29
e 15 30
e 15 31
e 15 34
e 15 37
e 15 41
e 15 42
e 15 43
e 15 44
e 15 45
e 15 46
e 15 48
e 15 51
e 15 62
e 15 65
e 15 67
e 15 69
e 15 74
e 15 85
e 15 88
e 15 90
e 16 17
e 16 18
e 16 19
e 16 20
e 16 21
e 16 22
e 16 23
e 16 24
e 16 27
e 16 28
e 16 31
e 16 33
e 16 35
e 16 37
e 16 40
e 16 43
e 16 51
e 16 62
e 16 65
e 16 68
e 16 71
e 16 96
e 16 100
e 17 18
e 17 19
e 17 20
e 17 21
e 17 22
e 17 23
e 17 24
e 17 25
e 17 26
e 17 27
e 17 29
e 17 32
e 17 36
e 17 37
e 17 39
e 17 40
e 17 41
e 17 44
e 17 48
e 17 53
e 17 55
e 17 56
e 17 57
e 17 58
e 17 60
e 17 61
e 17 65
e 17 66
e 17 67
e 17 68
e 17 69
e 17 71
e 17 72
e 17 79
e 17 82
e 17 84
e 17 86
e 17 87
e 17 90
e 17 93
e 17 95
e 17 96
e 17 97
e 17 99
e 18 19
e 18 20
e 18 21
e 18 22
e 18 23
e 18 24
e 18 25
e 18 26
e 18 27
e 18 28
e 18 29
e 18 30
e 18 31
e 18 32
e 18 35
e 18 36
e 18 37
e 18 38
e 18 42
e 18 47
e 18 48
e 18 51
e 18 55
e 18 62
e 18 64
e 18 67
e 18 70
e 18 73
e 18 74
e 18 75
e 18 78
e 18 80
e 18 83
e 18 84
e 18 85
e 18 86
e 18 87
e 18 92
e 18 94
e 18 97
e 18 98
e 19 20
e 19 21
e 19 22
e 19 23
e 19 24
e 19 25
e 19 26
e 19 27
e 19 29
e 19 30
e 19 31
e 19 32
e 19 34
e 19 35
e 19 36
e 19 37
e 19 39
e 19 42
e 19 44
e 19 45
e 19 50
e 19 52
e 19 53
e 19 54
e 19 55
e 19 59
e 19 60
e 19 61
e 19 63
e 19 68
e 19 70
e 19 71
e 19 74
e 19 75
e 19 76
e 19 79
e 19 82
e 19 83
e 19 88
e 19 93
e 19 99
e 19 100
e 20 21
e 20 22
e 20 23
e 20 24
e 20 25
e 20 26
e 20 28
e 20 29
e 20 30
e 20 31
e 20 32
e 20 33
e 20 34
e 20 36
e 20 38
e 20 40
e 20 41
e 20 42
e 20 43
e 20 44
e 20 45
e 20 46
e 20 47
e 20 49
e 20 50
e 20 51
e 20 52
e 20 55
e 20 56
e 20 57
e 20 64
e 20 66
e 20 67
e 20 69
e 20 79
e 20 84
e 20 85
e 20 92
e 20 94
e 20 100
e 21 22
e 21 23
e 21 24
e 21 25
e 21 26
e 21 27
e 21 28
e 21 29
e 21 30
e 21 31
e 21 33
e 21 34
e 21 35
e 21 39
e 21 41
e 21 46
e 21 47
e 21 48
e 21 52
e 21 53
e 21 54
e 21 55
e 21 56
e 21 61
e 21 63
e 21 67
e 21 70
e 21 72
e 21 74
e 21 76
e 21 83
e 21 84
e 21 87
e 21 91
e 21 99
e 22 23
e 22 24
e 22 25
e 22 26
e 22 27
e 22 28
e 22 30
e 22 34
e 22 35
e 22 38
e 22 42
e 22 43
e 22 45
e 22 54
e 22 57
e 22 58
e 22 61
e 22 64
e 22 71
e 22 80
e 22 85
e 22 86
e 22 89
e 22 91
e 22 93
e 22 94
e 22 100
e 23 24
e 23 25
e 23 26
e 23 28
e 23 29
e 23 32
e 23 33
e 23 36
e 23 40
e 23 42
e 23 44
e 23 46
e 23 49
e 23 51
e 23 53
e 23 54
e 23 55
e 23 56
e 23 57
e 23 58
e 23 59
e 23 61
e 23 63
e 23 69
e 23 70
e 23 73
e 23 74
e 23 77
e 23 79
e 23 88
e 23 92
e 23 93
e 23 97
e 24 25
e 24 26
e 24 27
e 24 28
e 24 29
e 24 30
e 24 31
e 24 32
e 24 33
e 24 34
e 24 37
e 24 38
e 24 42
e 24 43
e 24 45
e 24 46
e 24 48
e 24 49
e 24 53
e 24 56
e 24 59
e 24 61
e 24 65
e 24 67
e 24 77
e 24 80
e 24 81
e 24 83
e 24 84
e 24 87
e 24 88
e 24 89
e 24 91
e 24 94
e 24 95
e 24 97
e 24 99
e 25 26
e 25 30
e 25 31
e 25 34
e 25 37
e 25 39
e 25 40
e 25 43
e 25 44
e 25 46
e 25 49
e 25 50
e 25 51
e 25 53
e 25 58
e 25 62
e 25 64
e 25 65
e 25 66
e 25 70
e 25 78
e 25 81
e 25 84
e 25 87
e 25 89
e 25 91
e 26 27
e 26 29
e 26 30
e 26 31
e 26 34
e 26 35
e 26 42
e 26 43
e 26 45
e 26 47
e 26 48
e 26 52
e 26 53
e 26 58
e 26 62
e 26 63
e 26 64
e 26 65
e 26 68
e 26 69
e 26 70
e 26 73
e 26 74
e 26 76
e 26 77
e 26 79
e 26 90
e 26 91
e 26 97
e 26 99
e 27 28
e 27 31
e 27 32
e 27 33
e 27 35
e 27 39
e 27 40
e 27 41
e 27 55
e 27 67
e 27 70
e 27 72
e 27 77
e 27 82
e 27 87
e 27 92
e 27 98
e 27 99
e 28 30
e 28 31
e 28 32
e 28 36
e 28 38
e 28 39
e 28 40
e 28 42
e 28 44
e 28 46
e 28 47
e 28 48
e 28 49
e 28 50
e 28 51
e 28 52
e 28 53
e 28 55
e 28 62
e 28 64
e 28 68
e 28 71
e 28 74
e 28 75
e 28 76
e 28 78
e 28 81
e 28 82
e 28 85
e 28 86
e 28 88
e 28 91
e 28 92
e 28 93
e 29 32
e 29 33
e 29 34
e 29 35
e 29 36
e 29 37
e 29 39
e 29 42
e 29 44
e 29 45
e 29 46
e 29 48
e 29 49
e 29 50
e 29 56
e 29 57
e 29 60
e 29 68
e 29 70
e 29 72
e 29 74
e 29 77
e 29 78
e 29 79
e 29 80
e 29 81
e 29 92
e 30 32
e 30 34
e 30 36
e 30 37
e 30 38
e 30 39
e 30 40
e 30 41
e 30 43
e 30 44
e 30 49
e 30 50
e 30 52
e 30 54
e 30 59
e 30 60
e 30 65
e 30 66
e 30 69
e 30 72
e 30 75
e 30 80
e 30 81
e 30 82
e 30 83
e 30 88
e 30 95
e 30 96
e 30 99
e 31 32
e 31 33
e 31 34
e 31 35
e 31 36
e 31 38
e 31 39
e 31 41
e 31 43
e 31 48
e 31 51
e 31 53
e 31 54
e 31 55
e 31 56
e 31 58
e 31 59
e 31 63
e 31 66
e 31 68
e 31 71
e 31 77
e 31 86
e 31 90
e 32 35
e 32 36
e 32 38
e 32 39
e 32 41
e 32 43
e 32 45
e 32 50
e 32 54
e 32 55
e 32 58
e 32 59
e 32 60
e 32 61
e 32 63
e 32 64
e 32 69
e 32 71
e 32 73
e 32 76
e 32 82
e 32 86
e 32 88
e 32 89
e 32 92
e 32 94
e 32 95
e 32 99
e 32 100
e 33 37
e 33 40
e 33 41
e 33 43
e 33 44
e 33 45
e 33 48
e 33 50
e 33 51
e 33 53
e 33 57
e 33 59
e 33 61
e 33 63
e 33 73
e 33 74
e 33 80
e 33 83
e 33 94
e 33 95
e 34 35
e 34 36
e 34 37
e 34 38
e 34 39
e 34 41
e 34 42
e 34 46
e 34 47
e 34 51
e 34 52
e 34 55
e 34 57
e 34 59
e 34 60
e 34 66
e 34 67
e 34 79
e 34 80
e 34 93
e 34 98
e 34 100
e 35 38
e 35 40
e 35 41
e 35 43
e 35 48
e 35 49
e 35 52
e 35 53
e 35 55
e 35 61
e 35 64
e 35 66
e 35 72
e 35 96
e 35 97
e 36 37
e 36 41
e 36 43
e 36 45
e 36 49
e 36 50
e 36 57
e 36 60
e 36 63
e 36 69
e 36 70
e 36 71
e 36 72
e 36 73
e 36 80
e 36 94
e 36 97
e 37 41
e 37 44
e 37 47
e 37 49
e 37 51
e 37 54
e 37 56
e 37 58
e 37 60
e 37 61
e 37 62
e 37 70
e 37 73
e 37 75
e 37 80
e 37 83
e 37 85
e 37 90
e 37 91
e 37 96
e 37 100
e 38 39
e 38 40
e 38 45
e 38 50
e 38 55
e 38 58
e 38 59
e 38 62
e 38 63
e 38 65
e 38 67
e 38 68
e 38 76
e 38 77
e 38 88
e 38 99
e 39 40
e 39 45
e 39 47
e 39 48
e 39 52
e 39 53
e 39 54
e 39 57
e 39 58
e 39 65
e 39 67
e 39 77
e 39 81
e 39 82
e 39 89
e 39 91
e 39 92
e 39 97
e 40 43
e 40 44
e 40 45
e 40 47
e 40 48
e 40 49
e 40 51
e 40 54
e 40 56
e 40 60
e 40 61
e 40 66
e 40 69
e 40 71
e 40 75
e 40 81
e 40 89
e 40 92
e 40 98
e 41 44
e 41 45
e 41 47
e 41 50
e 41 54
e 41 58
e 41 64
e 41 66
e 41 72
e 41 81
e 41 90
e 41 92
e 41 95
e 42 50
e 42 52
e 42 58
e 42 62
e 42 63
e 42 68
e 42 71
e 42 75
e 42 78
e 42 85
e 42 86
e 42 95
e 43 44
e 43 45
e 43 46
e 43 47
e 43 49
e 43 52
e 43 57
e 43 67
e 43 71
e 43 75
e 43 78
e 43 84
e 43 85
e 43 94
e 43 98
e 44 45
e 44 46
e 44 47
e 44 49
e 44 56
e 44 58
e 44 60
e 44 62
e 44 64
e 44 72
e 44 81
e 44 98
e 45 46
e 45 50
e 45 51
e 45 52
e 45 53
e 45 54
e 45 55
e 45 56
e 45 59
e 45 62
e 45 64
e 45 66
e 45 69
e 45 71
e 45 76
e 45 77
e 45 79
e 45 81
e 46 47
e 46 51
e 46 66
e 46 69
e 46 71
e 46 75
e 46 76
e 46 79
e 46 97
e 47 50
e 47 52
e 47 68
e 47 70
e 47 73
e 47 74
e 47 76
e 47 81
e 47 95
e 47 100
e 48 49
e 48 51
e 48 58
e 48 59
e 48 64
e 48 69
e 48 77
e 48 84
e 48 88
e 48 92
e 49 51
e 49 52
e 49 56
e 49 62
e 49 63
e 49 67
e 49 73
e 49 78
e 49 82
e 49 83
e 49 89
e 49 93
e 49 94
e 49 96
e 49 97
e 50 58
e 50 76
e 50 78
e 50 79
e 50 80
e 50 92
e 51 53
e 51 59
e 51 60
e 51 68
e 51 79
e 51 98
e 52 54
e 52 59
e 52 60
e 52 65
e 52 73
e 52 74
e 52 82
e 52 84
e 52 89
e 52 96
e 52 98
e 53 57
e 53 60
e 53 80
e 53 89
e 53 90
e 53 93
e 53 96
e 53 99
e 54 56
e 54 59
e 54 63
e 54 71
e 54 76
e 54 77
e 54 78
e 54 84
e 54 86
e 54 88
e 54 90
e 55 62
e 55 65
e 55 73
e 55 82
e 55 83
e 56 65
e 56 66
e 56 68
e 56 75
e 56 81
e 56 87
e 56 99
e 57 63
e 57 70
e 57 73
e 57 78
e 57 90
e 58 79
e 58 83
e 58 84
e 58 88
e 58 89
e 58 93
e 58 94
e 59 62
e 59 66
e 59 77
e 59 91
e 59 93
e 60 62
e 60 65
e 60 66
e 60 69
e 60 74
e 60 79
e 60 80
e 60 81
e 60 82
e 60 84
e 60 87
e 60 92
e 60 93
e 60 96
e 60 97
e 61 66
e 61 70
e 61 73
e 61 74
e 61 82
e 61 88
e 61 90
e 61 91
e 61 94
e 61 95
e 61 96
e 62 73
e 62 76
e 62 83
e 62 86
e 62 98
e 62 100
e 63 68
e 63 70
e 63 79
e 63 89
e 63 99
e 63 100
e 64 67
e 64 68
e 64 72
e 64 77
e 64 86
e 64 91
e 65 72
e 65 74
e 65 77
e 65 80
e 65 86
e 65 93
e 66 67
e 66 78
e 66 85
e 67 75
e 67 82
e 67 99
e 68 89
e 68 95
e 68 96
e 68 97
e 68 98
e 69 80
e 69 85
e 69 87
e 69 89
e 70 77
e 70 87
e 71 78
e 71 85
e 72 75
e 72 83
e 72 87
e 73 89
e 74 78
e 74 84
e 74 88
e 74 98
e 75 82
e 75 87
e 75 88
e 75 97
e 75 100
e 76 86
e 77 83
e 77 86
e 77 95
e 79 82
e 79 84
e 79 86
e 79 96
e 80 83
e 80 93
e 80 97
e 81 85
e 81 96
e 81 98
e 82 86
e 82 90
e 82 96
e 83 96
e 84 90
e 84 100
e 85 87
e 85 88
e 85 96
e 86 89
e 86 90
e 86 91
e 86 95
e 87 92
e 87 100
e 89 92
e 90 94
e 90 98
e 91 97
e 93 94
e 94 98
e 96 98
e 96 100
e 97 99
